p edge 185 184 80
e 1 11
e 1 52
e 1 173
e 1 9
e 1 153
e 2 104
e 2 169
e 3 151
e 4 16
e 4 58
e 4 86
e 5 176
e 5 152
e 6 124
e 6 20
e 7 34
e 8 110
e 8 91
e 9 120
e 10 142
e 12 72
e 12 162
e 12 73
e 12 14
e 12 34
e 13 20
e 14 62
e 14 76
e 15 63
e 15 134
e 15 91
e 16 157
e 17 118
e 17 113
e 17 80
e 17 105
e 18 35
e 18 166
e 19 103
e 20 82
e 20 68
e 21 144
e 22 113
e 23 77
e 24 103
e 24 98
e 25 142
e 25 179
e 26 140
e 27 125
e 27 158
e 28 107
e 28 60
e 29 111
e 29 171
e 30 55
e 31 152
e 32 37
e 33 69
e 34 101
e 34 55
e 34 59
e 34 185
e 36 39
e 36 67
e 36 100
e 36 142
e 37 117
e 38 57
e 38 68
e 38 163
e 38 180
e 40 117
e 40 50
e 41 75
e 42 74
e 43 94
e 43 127
e 44 177
e 44 78
e 45 177
e 46 169
e 47 157
e 48 62
e 49 60
e 49 98
e 50 161
e 50 105
e 50 59
e 51 122
e 51 148
e 51 120
e 52 151
e 53 167
e 53 66
e 54 174
e 55 84
e 55 159
e 56 161
e 58 112
e 60 75
e 60 179
e 61 74
e 63 95
e 64 65
e 65 73
e 66 176
e 68 79
e 69 174
e 70 77
e 71 112
e 73 145
e 73 102
e 74 143
e 74 169
e 76 87
e 76 83
e 76 183
e 77 129
e 77 156
e 78 164
e 78 116
e 80 86
e 81 112
e 83 166
e 84 130
e 85 136
e 85 96
e 85 102
e 87 97
e 88 119
e 89 147
e 90 113
e 91 160
e 92 132
e 92 139
e 93 144
e 93 104
e 96 160
e 98 154
e 99 105
e 101 131
e 106 168
e 106 157
e 107 184
e 108 146
e 109 150
e 109 149
e 110 158
e 111 126
e 112 182
e 113 172
e 114 119
e 114 172
e 115 133
e 116 149
e 116 184
e 117 146
e 117 153
e 121 166
e 123 173
e 127 154
e 128 180
e 130 139
e 133 150
e 135 137
e 135 157
e 138 166
e 140 152
e 141 174
e 145 171
e 147 175
e 148 174
e 148 156
e 149 170
e 150 165
e 152 158
e 153 155
e 153 154
e 156 180
e 162 175
e 169 184
e 178 185
e 179 181
